c CNF file generated from BLIF2CNF script.
c Original BLIF file was -
p cnf 203 650
-1 -6 0
-2 -6 0
3 -6 0
6 1 2 -3  0
-6 5 0
1 -7 0
-2 -7 0
4 -7 0
7 -1 2 -4  0
-7 5 0
-2 -8 0
3 -8 0
4 -8 0
8 2 -3 -4  0
-8 5 0
-5 6 7 8  0
-1 -12 0
-2 -12 0
9 -12 0
12 1 2 -9  0
-12 11 0
1 -13 0
-2 -13 0
10 -13 0
13 -1 2 -10  0
-13 11 0
-2 -14 0
9 -14 0
10 -14 0
14 2 -9 -10  0
-14 11 0
-11 12 13 14  0
-1 -18 0
-2 -18 0
15 -18 0
18 1 2 -15  0
-18 17 0
1 -19 0
-2 -19 0
16 -19 0
19 -1 2 -16  0
-19 17 0
-2 -20 0
15 -20 0
16 -20 0
20 2 -15 -16  0
-20 17 0
-17 18 19 20  0
-1 -24 0
-2 -24 0
21 -24 0
24 1 2 -21  0
-24 23 0
1 -25 0
-2 -25 0
22 -25 0
25 -1 2 -22  0
-25 23 0
-2 -26 0
21 -26 0
22 -26 0
26 2 -21 -22  0
-26 23 0
-23 24 25 26  0
-1 -30 0
-2 -30 0
27 -30 0
30 1 2 -27  0
-30 29 0
1 -31 0
-2 -31 0
28 -31 0
31 -1 2 -28  0
-31 29 0
-2 -32 0
27 -32 0
28 -32 0
32 2 -27 -28  0
-32 29 0
-29 30 31 32  0
-1 -36 0
-2 -36 0
33 -36 0
36 1 2 -33  0
-36 35 0
1 -37 0
-2 -37 0
34 -37 0
37 -1 2 -34  0
-37 35 0
-2 -38 0
33 -38 0
34 -38 0
38 2 -33 -34  0
-38 35 0
-35 36 37 38  0
39 -43 0
-2 -43 0
40 -43 0
43 -39 2 -40  0
-43 42 0
-39 -44 0
-2 -44 0
41 -44 0
44 39 2 -41  0
-44 42 0
-2 -45 0
40 -45 0
41 -45 0
45 2 -40 -41  0
-45 42 0
-42 43 44 45  0
39 -48 0
-2 -48 0
46 -48 0
48 -39 2 -46  0
-48 47 0
-39 -49 0
-2 -49 0
40 -49 0
49 39 2 -40  0
-49 47 0
-2 -50 0
46 -50 0
40 -50 0
50 2 -46 -40  0
-50 47 0
-47 48 49 50  0
39 -53 0
-2 -53 0
51 -53 0
53 -39 2 -51  0
-53 52 0
-39 -54 0
-2 -54 0
46 -54 0
54 39 2 -46  0
-54 52 0
-2 -55 0
51 -55 0
46 -55 0
55 2 -51 -46  0
-55 52 0
-52 53 54 55  0
39 -58 0
-2 -58 0
56 -58 0
58 -39 2 -56  0
-58 57 0
-39 -59 0
-2 -59 0
51 -59 0
59 39 2 -51  0
-59 57 0
-2 -60 0
56 -60 0
51 -60 0
60 2 -56 -51  0
-60 57 0
-57 58 59 60  0
39 -63 0
-2 -63 0
61 -63 0
63 -39 2 -61  0
-63 62 0
-39 -64 0
-2 -64 0
56 -64 0
64 39 2 -56  0
-64 62 0
-2 -65 0
61 -65 0
56 -65 0
65 2 -61 -56  0
-65 62 0
-62 63 64 65  0
39 -68 0
-2 -68 0
66 -68 0
68 -39 2 -66  0
-68 67 0
-39 -69 0
-2 -69 0
61 -69 0
69 39 2 -61  0
-69 67 0
-2 -70 0
66 -70 0
61 -70 0
70 2 -66 -61  0
-70 67 0
-67 68 69 70  0
39 -73 0
-2 -73 0
71 -73 0
73 -39 2 -71  0
-73 72 0
-39 -74 0
-2 -74 0
66 -74 0
74 39 2 -66  0
-74 72 0
-2 -75 0
71 -75 0
66 -75 0
75 2 -71 -66  0
-75 72 0
-72 73 74 75  0
39 -78 0
-2 -78 0
76 -78 0
78 -39 2 -76  0
-78 77 0
-39 -79 0
-2 -79 0
71 -79 0
79 39 2 -71  0
-79 77 0
-2 -80 0
76 -80 0
71 -80 0
80 2 -76 -71  0
-80 77 0
-77 78 79 80  0
39 -83 0
-2 -83 0
81 -83 0
83 -39 2 -81  0
-83 82 0
-39 -84 0
-2 -84 0
76 -84 0
84 39 2 -76  0
-84 82 0
-2 -85 0
81 -85 0
76 -85 0
85 2 -81 -76  0
-85 82 0
-82 83 84 85  0
39 -88 0
-2 -88 0
86 -88 0
88 -39 2 -86  0
-88 87 0
-39 -89 0
-2 -89 0
81 -89 0
89 39 2 -81  0
-89 87 0
-2 -90 0
86 -90 0
81 -90 0
90 2 -86 -81  0
-90 87 0
-87 88 89 90  0
39 -93 0
-2 -93 0
91 -93 0
93 -39 2 -91  0
-93 92 0
-39 -94 0
-2 -94 0
86 -94 0
94 39 2 -86  0
-94 92 0
-2 -95 0
91 -95 0
86 -95 0
95 2 -91 -86  0
-95 92 0
-92 93 94 95  0
39 -98 0
-2 -98 0
96 -98 0
98 -39 2 -96  0
-98 97 0
-39 -99 0
-2 -99 0
91 -99 0
99 39 2 -91  0
-99 97 0
-2 -100 0
96 -100 0
91 -100 0
100 2 -96 -91  0
-100 97 0
-97 98 99 100  0
39 -103 0
-2 -103 0
101 -103 0
103 -39 2 -101  0
-103 102 0
-39 -104 0
-2 -104 0
96 -104 0
104 39 2 -96  0
-104 102 0
-2 -105 0
101 -105 0
96 -105 0
105 2 -101 -96  0
-105 102 0
-102 103 104 105  0
-39 -108 0
-2 -108 0
101 -108 0
108 39 2 -101  0
-108 107 0
39 -109 0
-2 -109 0
106 -109 0
109 -39 2 -106  0
-109 107 0
-2 -110 0
101 -110 0
106 -110 0
110 2 -101 -106  0
-110 107 0
-107 108 109 110  0
111 -115 0
-2 -115 0
112 -115 0
115 -111 2 -112  0
-115 114 0
-111 -116 0
-2 -116 0
113 -116 0
116 111 2 -113  0
-116 114 0
-2 -117 0
112 -117 0
113 -117 0
117 2 -112 -113  0
-117 114 0
-114 115 116 117  0
111 -120 0
-2 -120 0
118 -120 0
120 -111 2 -118  0
-120 119 0
-111 -121 0
-2 -121 0
112 -121 0
121 111 2 -112  0
-121 119 0
-2 -122 0
118 -122 0
112 -122 0
122 2 -118 -112  0
-122 119 0
-119 120 121 122  0
111 -125 0
-2 -125 0
123 -125 0
125 -111 2 -123  0
-125 124 0
-111 -126 0
-2 -126 0
118 -126 0
126 111 2 -118  0
-126 124 0
-2 -127 0
123 -127 0
118 -127 0
127 2 -123 -118  0
-127 124 0
-124 125 126 127  0
111 -130 0
-2 -130 0
128 -130 0
130 -111 2 -128  0
-130 129 0
-111 -131 0
-2 -131 0
123 -131 0
131 111 2 -123  0
-131 129 0
-2 -132 0
128 -132 0
123 -132 0
132 2 -128 -123  0
-132 129 0
-129 130 131 132  0
111 -135 0
-2 -135 0
133 -135 0
135 -111 2 -133  0
-135 134 0
-111 -136 0
-2 -136 0
128 -136 0
136 111 2 -128  0
-136 134 0
-2 -137 0
133 -137 0
128 -137 0
137 2 -133 -128  0
-137 134 0
-134 135 136 137  0
111 -140 0
-2 -140 0
138 -140 0
140 -111 2 -138  0
-140 139 0
-111 -141 0
-2 -141 0
133 -141 0
141 111 2 -133  0
-141 139 0
-2 -142 0
138 -142 0
133 -142 0
142 2 -138 -133  0
-142 139 0
-139 140 141 142  0
111 -145 0
-2 -145 0
143 -145 0
145 -111 2 -143  0
-145 144 0
-111 -146 0
-2 -146 0
138 -146 0
146 111 2 -138  0
-146 144 0
-2 -147 0
143 -147 0
138 -147 0
147 2 -143 -138  0
-147 144 0
-144 145 146 147  0
-111 -150 0
-2 -150 0
143 -150 0
150 111 2 -143  0
-150 149 0
106 -151 0
111 -151 0
-2 -151 0
21 -151 0
151 -106 -111 2 -21  0
-151 149 0
106 -152 0
-2 -152 0
21 -152 0
143 -152 0
152 -106 2 -21 -143  0
-152 149 0
106 -153 0
111 -153 0
-2 -153 0
148 -153 0
153 -106 -111 2 -148  0
-153 149 0
111 -154 0
-2 -154 0
-21 -154 0
148 -154 0
154 -111 2 21 -148  0
-154 149 0
106 -155 0
-2 -155 0
143 -155 0
148 -155 0
155 -106 2 -143 -148  0
-155 149 0
-2 -156 0
-21 -156 0
143 -156 0
148 -156 0
156 2 21 -143 -148  0
-156 149 0
-149 150 151 152 153 154 155 156  0
-111 -159 0
-2 -159 0
148 -159 0
159 111 2 -148  0
-159 158 0
-2 -160 0
21 -160 0
148 -160 0
160 2 -21 -148  0
-160 158 0
-2 -161 0
148 -161 0
157 -161 0
161 2 -148 -157  0
-161 158 0
111 -162 0
-2 -162 0
-21 -162 0
157 -162 0
162 -111 2 21 -157  0
-162 158 0
-158 159 160 161 162  0
-111 -165 0
-2 -165 0
157 -165 0
165 111 2 -157  0
-165 164 0
-2 -166 0
21 -166 0
157 -166 0
166 2 -21 -157  0
-166 164 0
-2 -167 0
157 -167 0
163 -167 0
167 2 -157 -163  0
-167 164 0
111 -168 0
-2 -168 0
-21 -168 0
163 -168 0
168 -111 2 21 -163  0
-168 164 0
-164 165 166 167 168  0
-111 -171 0
-2 -171 0
163 -171 0
171 111 2 -163  0
-171 170 0
-2 -172 0
21 -172 0
163 -172 0
172 2 -21 -163  0
-172 170 0
-2 -173 0
163 -173 0
169 -173 0
173 2 -163 -169  0
-173 170 0
111 -174 0
-2 -174 0
-21 -174 0
169 -174 0
174 -111 2 21 -169  0
-174 170 0
-170 171 172 173 174  0
-111 -177 0
-2 -177 0
169 -177 0
177 111 2 -169  0
-177 176 0
-2 -178 0
21 -178 0
169 -178 0
178 2 -21 -169  0
-178 176 0
-2 -179 0
169 -179 0
175 -179 0
179 2 -169 -175  0
-179 176 0
111 -180 0
-2 -180 0
-21 -180 0
175 -180 0
180 -111 2 21 -175  0
-180 176 0
-176 177 178 179 180  0
-111 -183 0
-2 -183 0
175 -183 0
183 111 2 -175  0
-183 182 0
-2 -184 0
21 -184 0
175 -184 0
184 2 -21 -175  0
-184 182 0
-2 -185 0
175 -185 0
181 -185 0
185 2 -175 -181  0
-185 182 0
111 -186 0
-2 -186 0
-21 -186 0
181 -186 0
186 -111 2 21 -181  0
-186 182 0
-182 183 184 185 186  0
-111 -189 0
-2 -189 0
181 -189 0
189 111 2 -181  0
-189 188 0
-2 -190 0
21 -190 0
181 -190 0
190 2 -21 -181  0
-190 188 0
-2 -191 0
181 -191 0
187 -191 0
191 2 -181 -187  0
-191 188 0
111 -192 0
-2 -192 0
-21 -192 0
187 -192 0
192 -111 2 21 -187  0
-192 188 0
-188 189 190 191 192  0
-111 -195 0
-2 -195 0
187 -195 0
195 111 2 -187  0
-195 194 0
-2 -196 0
21 -196 0
187 -196 0
196 2 -21 -187  0
-196 194 0
-2 -197 0
187 -197 0
193 -197 0
197 2 -187 -193  0
-197 194 0
111 -198 0
-2 -198 0
-21 -198 0
193 -198 0
198 -111 2 21 -193  0
-198 194 0
-194 195 196 197 198  0
106 -200 0
-2 -200 0
193 -200 0
200 -106 2 -193  0
-200 199 0
-111 -201 0
-2 -201 0
193 -201 0
201 111 2 -193  0
-201 199 0
-2 -202 0
21 -202 0
193 -202 0
202 2 -21 -193  0
-202 199 0
106 -203 0
111 -203 0
-2 -203 0
-21 -203 0
203 -106 -111 2 21  0
-203 199 0
-199 200 201 202 203  0
